1600 3200
1 2 1
1 41 1
2 3 2
2 42 1
3 4 5
3 43 1
4 5 1
4 44 4
5 6 1
5 45 3
6 7 3
6 46 1
7 8 1
7 47 5
8 9 1
8 48 3
9 10 5
9 49 3
10 11 5
10 50 4
11 12 2
11 51 5
12 13 1
12 52 5
13 14 2
13 53 5
14 15 4
14 54 3
15 16 1
15 55 5
16 17 1
16 56 1
17 18 4
17 57 2
18 19 3
18 58 5
19 20 5
19 59 4
20 21 1
20 60 1
21 22 4
21 61 4
22 23 5
22 62 5
23 24 4
23 63 2
24 25 1
24 64 1
25 26 4
25 65 1
26 27 3
26 66 5
27 28 5
27 67 1
28 29 1
28 68 3
29 30 4
29 69 4
30 31 5
30 70 3
31 32 2
31 71 5
32 33 5
32 72 3
33 34 5
33 73 2
34 35 4
34 74 1
35 36 5
35 75 5
36 37 4
36 76 3
37 38 5
37 77 3
38 39 1
38 78 4
39 40 3
39 79 1
40 80 4
41 42 4
41 81 3
42 43 1
42 82 1
43 44 4
43 83 5
44 45 4
44 84 5
45 46 5
45 85 5
46 47 1
46 86 2
47 48 1
47 87 4
48 49 3
48 88 5
49 50 2
49 89 3
50 51 1
50 90 3
51 52 5
51 91 3
52 53 3
52 92 3
53 54 2
53 93 5
54 55 2
54 94 4
55 56 5
55 95 1
56 57 5
56 96 5
57 58 1
57 97 1
58 59 4
58 98 4
59 60 2
59 99 2
60 61 2
60 100 3
61 62 1
61 101 3
62 63 1
62 102 4
63 64 2
63 103 1
64 65 2
64 104 5
65 66 1
65 105 1
66 67 5
66 106 5
67 68 1
67 107 1
68 69 1
68 108 3
69 70 3
69 109 4
70 71 1
70 110 4
71 72 1
71 111 4
72 73 1
72 112 5
73 74 4
73 113 3
74 75 5
74 114 1
75 76 2
75 115 5
76 77 2
76 116 3
77 78 2
77 117 3
78 79 1
78 118 5
79 80 4
79 119 4
80 120 4
81 82 5
81 121 3
82 83 1
82 122 3
83 84 2
83 123 4
84 85 3
84 124 5
85 86 5
85 125 1
86 87 3
86 126 3
87 88 3
87 127 4
88 89 4
88 128 5
89 90 2
89 129 1
90 91 5
90 130 4
91 92 2
91 131 4
92 93 3
92 132 3
93 94 3
93 133 5
94 95 5
94 134 2
95 96 4
95 135 2
96 97 3
96 136 2
97 98 4
97 137 3
98 99 4
98 138 3
99 100 1
99 139 4
100 101 5
100 140 1
101 102 4
101 141 2
102 103 1
102 142 1
103 104 5
103 143 4
104 105 1
104 144 3
105 106 5
105 145 1
106 107 4
106 146 3
107 108 4
107 147 2
108 109 4
108 148 3
109 110 4
109 149 5
110 111 4
110 150 5
111 112 2
111 151 1
112 113 3
112 152 3
113 114 2
113 153 2
114 115 5
114 154 3
115 116 2
115 155 4
116 117 4
116 156 5
117 118 2
117 157 2
118 119 2
118 158 4
119 120 2
119 159 2
120 160 2
121 122 3
121 161 2
122 123 5
122 162 1
123 124 2
123 163 3
124 125 2
124 164 5
125 126 2
125 165 5
126 127 3
126 166 3
127 128 4
127 167 3
128 129 4
128 168 4
129 130 1
129 169 4
130 131 2
130 170 4
131 132 4
131 171 2
132 133 2
132 172 1
133 134 3
133 173 4
134 135 2
134 174 1
135 136 1
135 175 5
136 137 2
136 176 1
137 138 2
137 177 3
138 139 2
138 178 5
139 140 3
139 179 3
140 141 4
140 180 4
141 142 5
141 181 1
142 143 5
142 182 1
143 144 2
143 183 2
144 145 2
144 184 1
145 146 4
145 185 5
146 147 4
146 186 3
147 148 5
147 187 5
148 149 1
148 188 3
149 150 5
149 189 2
150 151 2
150 190 2
151 152 3
151 191 4
152 153 4
152 192 4
153 154 3
153 193 4
154 155 2
154 194 4
155 156 3
155 195 1
156 157 3
156 196 5
157 158 4
157 197 3
158 159 2
158 198 3
159 160 2
159 199 5
160 200 4
161 162 3
161 201 2
162 163 1
162 202 1
163 164 2
163 203 4
164 165 2
164 204 2
165 166 4
165 205 2
166 167 1
166 206 3
167 168 4
167 207 4
168 169 2
168 208 2
169 170 1
169 209 4
170 171 1
170 210 3
171 172 5
171 211 1
172 173 1
172 212 5
173 174 5
173 213 3
174 175 3
174 214 5
175 176 4
175 215 2
176 177 4
176 216 2
177 178 2
177 217 3
178 179 2
178 218 5
179 180 2
179 219 3
180 181 3
180 220 3
181 182 1
181 221 5
182 183 1
182 222 1
183 184 2
183 223 5
184 185 2
184 224 2
185 186 4
185 225 5
186 187 4
186 226 4
187 188 4
187 227 3
188 189 5
188 228 5
189 190 5
189 229 5
190 191 2
190 230 5
191 192 1
191 231 1
192 193 2
192 232 3
193 194 1
193 233 1
194 195 4
194 234 1
195 196 4
195 235 1
196 197 1
196 236 5
197 198 4
197 237 3
198 199 3
198 238 4
199 200 1
199 239 4
200 240 2
201 202 4
201 241 4
202 203 3
202 242 3
203 204 4
203 243 1
204 205 4
204 244 4
205 206 3
205 245 2
206 207 1
206 246 2
207 208 2
207 247 1
208 209 2
208 248 2
209 210 3
209 249 4
210 211 1
210 250 2
211 212 3
211 251 1
212 213 1
212 252 5
213 214 5
213 253 5
214 215 5
214 254 1
215 216 2
215 255 5
216 217 5
216 256 3
217 218 4
217 257 5
218 219 4
218 258 4
219 220 5
219 259 2
220 221 4
220 260 2
221 222 5
221 261 3
222 223 1
222 262 5
223 224 1
223 263 5
224 225 2
224 264 1
225 226 5
225 265 3
226 227 5
226 266 2
227 228 2
227 267 3
228 229 5
228 268 2
229 230 4
229 269 2
230 231 5
230 270 1
231 232 2
231 271 5
232 233 5
232 272 3
233 234 3
233 273 1
234 235 4
234 274 3
235 236 3
235 275 3
236 237 5
236 276 1
237 238 5
237 277 1
238 239 5
238 278 2
239 240 5
239 279 1
240 280 4
241 242 5
241 281 1
242 243 5
242 282 2
243 244 5
243 283 2
244 245 5
244 284 4
245 246 5
245 285 3
246 247 5
246 286 3
247 248 4
247 287 3
248 249 1
248 288 4
249 250 3
249 289 2
250 251 3
250 290 3
251 252 4
251 291 3
252 253 1
252 292 1
253 254 3
253 293 2
254 255 4
254 294 5
255 256 4
255 295 5
256 257 3
256 296 5
257 258 4
257 297 5
258 259 5
258 298 1
259 260 3
259 299 4
260 261 5
260 300 3
261 262 3
261 301 5
262 263 5
262 302 2
263 264 2
263 303 1
264 265 3
264 304 1
265 266 2
265 305 3
266 267 5
266 306 5
267 268 3
267 307 1
268 269 3
268 308 5
269 270 3
269 309 5
270 271 5
270 310 4
271 272 4
271 311 3
272 273 5
272 312 1
273 274 1
273 313 2
274 275 5
274 314 5
275 276 4
275 315 1
276 277 3
276 316 4
277 278 2
277 317 4
278 279 2
278 318 5
279 280 5
279 319 2
280 320 3
281 282 5
281 321 3
282 283 3
282 322 3
283 284 4
283 323 1
284 285 2
284 324 3
285 286 4
285 325 1
286 287 3
286 326 5
287 288 3
287 327 4
288 289 3
288 328 5
289 290 2
289 329 5
290 291 5
290 330 1
291 292 2
291 331 4
292 293 3
292 332 5
293 294 1
293 333 3
294 295 3
294 334 4
295 296 5
295 335 5
296 297 5
296 336 2
297 298 2
297 337 2
298 299 4
298 338 2
299 300 5
299 339 5
300 301 1
300 340 4
301 302 4
301 341 3
302 303 2
302 342 4
303 304 3
303 343 3
304 305 1
304 344 2
305 306 4
305 345 5
306 307 3
306 346 5
307 308 1
307 347 3
308 309 2
308 348 4
309 310 4
309 349 3
310 311 2
310 350 3
311 312 1
311 351 5
312 313 5
312 352 2
313 314 4
313 353 2
314 315 5
314 354 5
315 316 4
315 355 1
316 317 5
316 356 4
317 318 5
317 357 2
318 319 4
318 358 5
319 320 4
319 359 1
320 360 3
321 322 1
321 361 3
322 323 3
322 362 2
323 324 1
323 363 1
324 325 1
324 364 3
325 326 4
325 365 1
326 327 5
326 366 5
327 328 5
327 367 4
328 329 2
328 368 3
329 330 2
329 369 4
330 331 4
330 370 4
331 332 5
331 371 5
332 333 3
332 372 1
333 334 5
333 373 2
334 335 3
334 374 1
335 336 2
335 375 1
336 337 2
336 376 4
337 338 1
337 377 5
338 339 5
338 378 4
339 340 5
339 379 1
340 341 1
340 380 2
341 342 4
341 381 1
342 343 5
342 382 5
343 344 1
343 383 2
344 345 4
344 384 4
345 346 4
345 385 4
346 347 2
346 386 4
347 348 2
347 387 4
348 349 2
348 388 1
349 350 4
349 389 1
350 351 5
350 390 3
351 352 4
351 391 2
352 353 5
352 392 2
353 354 3
353 393 2
354 355 4
354 394 1
355 356 4
355 395 3
356 357 5
356 396 1
357 358 3
357 397 4
358 359 2
358 398 5
359 360 2
359 399 5
360 400 4
361 362 3
361 401 3
362 363 3
362 402 2
363 364 2
363 403 2
364 365 1
364 404 1
365 366 5
365 405 4
366 367 1
366 406 1
367 368 1
367 407 1
368 369 5
368 408 3
369 370 2
369 409 5
370 371 1
370 410 4
371 372 2
371 411 5
372 373 2
372 412 5
373 374 1
373 413 4
374 375 3
374 414 1
375 376 4
375 415 2
376 377 5
376 416 4
377 378 5
377 417 5
378 379 2
378 418 1
379 380 1
379 419 4
380 381 5
380 420 4
381 382 2
381 421 4
382 383 1
382 422 5
383 384 3
383 423 2
384 385 2
384 424 2
385 386 5
385 425 4
386 387 1
386 426 3
387 388 4
387 427 4
388 389 1
388 428 5
389 390 4
389 429 2
390 391 5
390 430 4
391 392 2
391 431 5
392 393 5
392 432 5
393 394 1
393 433 2
394 395 4
394 434 1
395 396 2
395 435 3
396 397 4
396 436 5
397 398 5
397 437 4
398 399 5
398 438 3
399 400 1
399 439 3
400 440 4
401 402 2
401 441 4
402 403 4
402 442 4
403 404 4
403 443 4
404 405 2
404 444 2
405 406 4
405 445 4
406 407 2
406 446 5
407 408 1
407 447 5
408 409 1
408 448 1
409 410 4
409 449 4
410 411 1
410 450 2
411 412 5
411 451 1
412 413 1
412 452 4
413 414 4
413 453 5
414 415 3
414 454 4
415 416 2
415 455 4
416 417 2
416 456 3
417 418 2
417 457 1
418 419 3
418 458 1
419 420 2
419 459 2
420 421 2
420 460 4
421 422 3
421 461 3
422 423 4
422 462 1
423 424 5
423 463 5
424 425 5
424 464 3
425 426 1
425 465 3
426 427 3
426 466 1
427 428 4
427 467 3
428 429 2
428 468 4
429 430 4
429 469 3
430 431 4
430 470 5
431 432 4
431 471 5
432 433 4
432 472 4
433 434 4
433 473 3
434 435 3
434 474 1
435 436 5
435 475 4
436 437 1
436 476 5
437 438 5
437 477 4
438 439 5
438 478 5
439 440 5
439 479 3
440 480 1
441 442 4
441 481 3
442 443 5
442 482 1
443 444 5
443 483 5
444 445 1
444 484 5
445 446 3
445 485 2
446 447 5
446 486 2
447 448 3
447 487 4
448 449 4
448 488 3
449 450 3
449 489 3
450 451 3
450 490 4
451 452 5
451 491 1
452 453 3
452 492 3
453 454 3
453 493 1
454 455 2
454 494 1
455 456 5
455 495 5
456 457 2
456 496 2
457 458 3
457 497 2
458 459 1
458 498 5
459 460 3
459 499 1
460 461 1
460 500 3
461 462 2
461 501 3
462 463 4
462 502 1
463 464 4
463 503 5
464 465 5
464 504 3
465 466 4
465 505 4
466 467 1
466 506 1
467 468 4
467 507 3
468 469 1
468 508 4
469 470 4
469 509 3
470 471 3
470 510 4
471 472 5
471 511 1
472 473 1
472 512 1
473 474 4
473 513 3
474 475 5
474 514 3
475 476 4
475 515 4
476 477 1
476 516 3
477 478 5
477 517 1
478 479 5
478 518 3
479 480 4
479 519 3
480 520 3
481 482 4
481 521 3
482 483 5
482 522 3
483 484 2
483 523 5
484 485 4
484 524 5
485 486 1
485 525 1
486 487 4
486 526 2
487 488 5
487 527 4
488 489 2
488 528 5
489 490 3
489 529 1
490 491 3
490 530 4
491 492 5
491 531 2
492 493 5
492 532 4
493 494 4
493 533 4
494 495 5
494 534 3
495 496 2
495 535 1
496 497 5
496 536 4
497 498 2
497 537 1
498 499 4
498 538 5
499 500 5
499 539 5
500 501 2
500 540 1
501 502 4
501 541 2
502 503 3
502 542 4
503 504 1
503 543 4
504 505 2
504 544 3
505 506 2
505 545 2
506 507 5
506 546 4
507 508 5
507 547 1
508 509 5
508 548 2
509 510 4
509 549 3
510 511 3
510 550 3
511 512 4
511 551 4
512 513 5
512 552 1
513 514 3
513 553 2
514 515 3
514 554 3
515 516 3
515 555 4
516 517 3
516 556 5
517 518 3
517 557 1
518 519 3
518 558 3
519 520 5
519 559 5
520 560 5
521 522 1
521 561 2
522 523 2
522 562 5
523 524 2
523 563 1
524 525 4
524 564 1
525 526 1
525 565 5
526 527 4
526 566 2
527 528 4
527 567 5
528 529 3
528 568 5
529 530 2
529 569 1
530 531 1
530 570 5
531 532 4
531 571 2
532 533 2
532 572 1
533 534 5
533 573 1
534 535 5
534 574 1
535 536 1
535 575 4
536 537 2
536 576 1
537 538 5
537 577 1
538 539 1
538 578 2
539 540 2
539 579 4
540 541 2
540 580 5
541 542 3
541 581 4
542 543 4
542 582 2
543 544 5
543 583 1
544 545 2
544 584 3
545 546 5
545 585 5
546 547 2
546 586 3
547 548 3
547 587 4
548 549 2
548 588 4
549 550 2
549 589 5
550 551 5
550 590 3
551 552 2
551 591 5
552 553 1
552 592 4
553 554 2
553 593 5
554 555 2
554 594 5
555 556 2
555 595 4
556 557 1
556 596 4
557 558 2
557 597 1
558 559 2
558 598 2
559 560 5
559 599 5
560 600 1
561 562 4
561 601 5
562 563 2
562 602 4
563 564 2
563 603 2
564 565 4
564 604 1
565 566 3
565 605 3
566 567 3
566 606 2
567 568 1
567 607 3
568 569 1
568 608 4
569 570 2
569 609 2
570 571 3
570 610 1
571 572 3
571 611 1
572 573 4
572 612 3
573 574 4
573 613 4
574 575 5
574 614 3
575 576 2
575 615 2
576 577 1
576 616 1
577 578 3
577 617 5
578 579 4
578 618 4
579 580 3
579 619 2
580 581 3
580 620 1
581 582 4
581 621 1
582 583 3
582 622 3
583 584 3
583 623 5
584 585 2
584 624 3
585 586 1
585 625 1
586 587 1
586 626 5
587 588 4
587 627 5
588 589 5
588 628 1
589 590 1
589 629 1
590 591 2
590 630 5
591 592 5
591 631 4
592 593 3
592 632 5
593 594 1
593 633 2
594 595 5
594 634 1
595 596 4
595 635 3
596 597 2
596 636 5
597 598 5
597 637 4
598 599 2
598 638 2
599 600 2
599 639 1
600 640 4
601 602 1
601 641 2
602 603 4
602 642 3
603 604 4
603 643 3
604 605 1
604 644 2
605 606 5
605 645 3
606 607 5
606 646 1
607 608 2
607 647 2
608 609 1
608 648 4
609 610 5
609 649 1
610 611 3
610 650 3
611 612 5
611 651 5
612 613 2
612 652 2
613 614 3
613 653 4
614 615 1
614 654 4
615 616 3
615 655 2
616 617 1
616 656 4
617 618 4
617 657 4
618 619 1
618 658 3
619 620 3
619 659 3
620 621 4
620 660 4
621 622 1
621 661 3
622 623 5
622 662 1
623 624 4
623 663 5
624 625 1
624 664 4
625 626 5
625 665 3
626 627 3
626 666 1
627 628 3
627 667 3
628 629 2
628 668 3
629 630 2
629 669 2
630 631 4
630 670 2
631 632 1
631 671 4
632 633 5
632 672 5
633 634 2
633 673 2
634 635 2
634 674 1
635 636 5
635 675 2
636 637 4
636 676 2
637 638 2
637 677 4
638 639 4
638 678 1
639 640 2
639 679 1
640 680 5
641 642 3
641 681 1
642 643 3
642 682 1
643 644 3
643 683 3
644 645 4
644 684 2
645 646 1
645 685 1
646 647 4
646 686 1
647 648 1
647 687 1
648 649 4
648 688 3
649 650 5
649 689 2
650 651 4
650 690 1
651 652 2
651 691 4
652 653 5
652 692 1
653 654 2
653 693 4
654 655 1
654 694 2
655 656 2
655 695 1
656 657 5
656 696 5
657 658 5
657 697 2
658 659 2
658 698 5
659 660 2
659 699 2
660 661 2
660 700 1
661 662 2
661 701 2
662 663 2
662 702 1
663 664 2
663 703 2
664 665 2
664 704 4
665 666 1
665 705 1
666 667 5
666 706 5
667 668 4
667 707 5
668 669 4
668 708 3
669 670 3
669 709 3
670 671 2
670 710 5
671 672 2
671 711 2
672 673 5
672 712 5
673 674 4
673 713 1
674 675 1
674 714 2
675 676 3
675 715 5
676 677 4
676 716 1
677 678 5
677 717 5
678 679 5
678 718 5
679 680 5
679 719 5
680 720 5
681 682 3
681 721 4
682 683 4
682 722 5
683 684 2
683 723 4
684 685 3
684 724 5
685 686 1
685 725 4
686 687 1
686 726 4
687 688 2
687 727 3
688 689 4
688 728 2
689 690 1
689 729 3
690 691 1
690 730 5
691 692 2
691 731 1
692 693 1
692 732 3
693 694 3
693 733 2
694 695 2
694 734 5
695 696 2
695 735 4
696 697 1
696 736 4
697 698 3
697 737 1
698 699 5
698 738 4
699 700 2
699 739 2
700 701 5
700 740 2
701 702 1
701 741 3
702 703 5
702 742 5
703 704 2
703 743 2
704 705 5
704 744 5
705 706 2
705 745 4
706 707 1
706 746 4
707 708 1
707 747 3
708 709 3
708 748 4
709 710 2
709 749 5
710 711 5
710 750 3
711 712 5
711 751 1
712 713 3
712 752 5
713 714 2
713 753 5
714 715 3
714 754 1
715 716 5
715 755 5
716 717 3
716 756 2
717 718 1
717 757 2
718 719 2
718 758 1
719 720 5
719 759 3
720 760 5
721 722 5
721 761 2
722 723 4
722 762 1
723 724 3
723 763 4
724 725 1
724 764 1
725 726 1
725 765 4
726 727 1
726 766 2
727 728 2
727 767 1
728 729 3
728 768 3
729 730 1
729 769 4
730 731 4
730 770 5
731 732 1
731 771 4
732 733 1
732 772 3
733 734 3
733 773 1
734 735 4
734 774 3
735 736 3
735 775 4
736 737 2
736 776 4
737 738 3
737 777 1
738 739 5
738 778 1
739 740 2
739 779 4
740 741 2
740 780 5
741 742 1
741 781 4
742 743 4
742 782 3
743 744 2
743 783 1
744 745 3
744 784 5
745 746 3
745 785 5
746 747 1
746 786 3
747 748 1
747 787 4
748 749 3
748 788 2
749 750 2
749 789 3
750 751 4
750 790 1
751 752 3
751 791 1
752 753 3
752 792 1
753 754 4
753 793 2
754 755 3
754 794 3
755 756 5
755 795 4
756 757 2
756 796 2
757 758 2
757 797 2
758 759 5
758 798 4
759 760 2
759 799 3
760 800 4
761 762 2
761 801 1
762 763 1
762 802 4
763 764 2
763 803 5
764 765 2
764 804 1
765 766 1
765 805 4
766 767 3
766 806 4
767 768 4
767 807 5
768 769 4
768 808 2
769 770 2
769 809 5
770 771 1
770 810 2
771 772 5
771 811 3
772 773 2
772 812 3
773 774 3
773 813 3
774 775 2
774 814 3
775 776 2
775 815 1
776 777 2
776 816 3
777 778 5
777 817 2
778 779 4
778 818 2
779 780 5
779 819 3
780 781 2
780 820 4
781 782 2
781 821 3
782 783 5
782 822 1
783 784 2
783 823 4
784 785 2
784 824 2
785 786 1
785 825 4
786 787 1
786 826 4
787 788 4
787 827 4
788 789 2
788 828 1
789 790 5
789 829 5
790 791 5
790 830 3
791 792 4
791 831 3
792 793 4
792 832 2
793 794 5
793 833 2
794 795 4
794 834 1
795 796 1
795 835 1
796 797 2
796 836 3
797 798 4
797 837 2
798 799 1
798 838 1
799 800 1
799 839 2
800 840 3
801 802 4
801 841 5
802 803 2
802 842 2
803 804 4
803 843 1
804 805 1
804 844 3
805 806 5
805 845 1
806 807 2
806 846 4
807 808 4
807 847 1
808 809 3
808 848 3
809 810 3
809 849 4
810 811 4
810 850 4
811 812 5
811 851 5
812 813 3
812 852 4
813 814 3
813 853 1
814 815 5
814 854 2
815 816 2
815 855 1
816 817 3
816 856 2
817 818 3
817 857 1
818 819 1
818 858 2
819 820 4
819 859 3
820 821 1
820 860 5
821 822 2
821 861 2
822 823 3
822 862 2
823 824 3
823 863 2
824 825 2
824 864 1
825 826 3
825 865 2
826 827 2
826 866 1
827 828 5
827 867 4
828 829 4
828 868 4
829 830 2
829 869 1
830 831 5
830 870 1
831 832 2
831 871 2
832 833 3
832 872 1
833 834 3
833 873 4
834 835 5
834 874 4
835 836 2
835 875 4
836 837 3
836 876 2
837 838 4
837 877 2
838 839 4
838 878 2
839 840 1
839 879 1
840 880 2
841 842 2
841 881 2
842 843 4
842 882 1
843 844 3
843 883 2
844 845 1
844 884 4
845 846 1
845 885 2
846 847 5
846 886 3
847 848 2
847 887 3
848 849 4
848 888 4
849 850 4
849 889 5
850 851 2
850 890 1
851 852 2
851 891 1
852 853 5
852 892 4
853 854 5
853 893 1
854 855 4
854 894 1
855 856 2
855 895 4
856 857 4
856 896 3
857 858 3
857 897 5
858 859 5
858 898 5
859 860 3
859 899 2
860 861 5
860 900 5
861 862 1
861 901 3
862 863 4
862 902 5
863 864 4
863 903 5
864 865 5
864 904 5
865 866 4
865 905 2
866 867 4
866 906 2
867 868 5
867 907 1
868 869 2
868 908 3
869 870 1
869 909 5
870 871 3
870 910 2
871 872 3
871 911 3
872 873 1
872 912 4
873 874 2
873 913 4
874 875 1
874 914 4
875 876 3
875 915 5
876 877 2
876 916 2
877 878 2
877 917 4
878 879 3
878 918 4
879 880 1
879 919 5
880 920 1
881 882 2
881 921 4
882 883 2
882 922 1
883 884 2
883 923 3
884 885 2
884 924 5
885 886 3
885 925 3
886 887 1
886 926 1
887 888 2
887 927 5
888 889 4
888 928 5
889 890 5
889 929 3
890 891 3
890 930 2
891 892 1
891 931 2
892 893 5
892 932 5
893 894 1
893 933 2
894 895 3
894 934 1
895 896 4
895 935 2
896 897 4
896 936 2
897 898 5
897 937 3
898 899 1
898 938 3
899 900 5
899 939 3
900 901 1
900 940 5
901 902 2
901 941 4
902 903 5
902 942 2
903 904 2
903 943 1
904 905 4
904 944 4
905 906 3
905 945 1
906 907 5
906 946 5
907 908 1
907 947 3
908 909 3
908 948 3
909 910 3
909 949 2
910 911 4
910 950 2
911 912 3
911 951 3
912 913 5
912 952 2
913 914 1
913 953 2
914 915 3
914 954 2
915 916 2
915 955 2
916 917 2
916 956 1
917 918 5
917 957 3
918 919 4
918 958 5
919 920 2
919 959 5
920 960 4
921 922 5
921 961 4
922 923 1
922 962 3
923 924 5
923 963 4
924 925 1
924 964 3
925 926 2
925 965 2
926 927 5
926 966 3
927 928 2
927 967 4
928 929 3
928 968 5
929 930 2
929 969 5
930 931 1
930 970 3
931 932 4
931 971 2
932 933 3
932 972 1
933 934 1
933 973 4
934 935 4
934 974 5
935 936 2
935 975 3
936 937 3
936 976 3
937 938 3
937 977 2
938 939 3
938 978 4
939 940 1
939 979 4
940 941 1
940 980 4
941 942 4
941 981 1
942 943 5
942 982 3
943 944 2
943 983 1
944 945 3
944 984 5
945 946 2
945 985 4
946 947 4
946 986 2
947 948 3
947 987 3
948 949 2
948 988 5
949 950 3
949 989 5
950 951 2
950 990 2
951 952 4
951 991 3
952 953 3
952 992 4
953 954 4
953 993 1
954 955 1
954 994 4
955 956 3
955 995 4
956 957 1
956 996 5
957 958 5
957 997 1
958 959 3
958 998 5
959 960 1
959 999 3
960 1000 3
961 962 2
961 1001 2
962 963 5
962 1002 4
963 964 1
963 1003 4
964 965 2
964 1004 5
965 966 1
965 1005 2
966 967 2
966 1006 4
967 968 3
967 1007 4
968 969 2
968 1008 1
969 970 1
969 1009 4
970 971 3
970 1010 3
971 972 5
971 1011 1
972 973 1
972 1012 3
973 974 1
973 1013 5
974 975 1
974 1014 1
975 976 1
975 1015 4
976 977 2
976 1016 5
977 978 3
977 1017 4
978 979 2
978 1018 2
979 980 3
979 1019 3
980 981 4
980 1020 1
981 982 1
981 1021 4
982 983 5
982 1022 4
983 984 5
983 1023 3
984 985 2
984 1024 3
985 986 2
985 1025 4
986 987 4
986 1026 3
987 988 4
987 1027 4
988 989 2
988 1028 4
989 990 3
989 1029 4
990 991 5
990 1030 4
991 992 5
991 1031 3
992 993 1
992 1032 4
993 994 4
993 1033 3
994 995 5
994 1034 3
995 996 2
995 1035 3
996 997 1
996 1036 4
997 998 2
997 1037 5
998 999 4
998 1038 1
999 1000 2
999 1039 1
1000 1040 3
1001 1002 1
1001 1041 3
1002 1003 2
1002 1042 1
1003 1004 3
1003 1043 1
1004 1005 2
1004 1044 4
1005 1006 4
1005 1045 4
1006 1007 2
1006 1046 3
1007 1008 4
1007 1047 3
1008 1009 3
1008 1048 5
1009 1010 4
1009 1049 2
1010 1011 2
1010 1050 2
1011 1012 1
1011 1051 1
1012 1013 4
1012 1052 5
1013 1014 5
1013 1053 1
1014 1015 2
1014 1054 4
1015 1016 4
1015 1055 2
1016 1017 4
1016 1056 5
1017 1018 5
1017 1057 1
1018 1019 1
1018 1058 2
1019 1020 1
1019 1059 5
1020 1021 5
1020 1060 3
1021 1022 5
1021 1061 2
1022 1023 3
1022 1062 5
1023 1024 4
1023 1063 2
1024 1025 1
1024 1064 5
1025 1026 4
1025 1065 4
1026 1027 1
1026 1066 4
1027 1028 1
1027 1067 2
1028 1029 2
1028 1068 4
1029 1030 5
1029 1069 3
1030 1031 3
1030 1070 4
1031 1032 2
1031 1071 3
1032 1033 5
1032 1072 2
1033 1034 1
1033 1073 3
1034 1035 2
1034 1074 1
1035 1036 5
1035 1075 5
1036 1037 4
1036 1076 3
1037 1038 3
1037 1077 5
1038 1039 1
1038 1078 3
1039 1040 1
1039 1079 1
1040 1080 5
1041 1042 4
1041 1081 5
1042 1043 4
1042 1082 4
1043 1044 4
1043 1083 5
1044 1045 5
1044 1084 3
1045 1046 4
1045 1085 2
1046 1047 3
1046 1086 3
1047 1048 2
1047 1087 2
1048 1049 1
1048 1088 4
1049 1050 1
1049 1089 4
1050 1051 3
1050 1090 5
1051 1052 1
1051 1091 1
1052 1053 5
1052 1092 4
1053 1054 1
1053 1093 5
1054 1055 5
1054 1094 5
1055 1056 1
1055 1095 5
1056 1057 4
1056 1096 2
1057 1058 2
1057 1097 3
1058 1059 1
1058 1098 4
1059 1060 4
1059 1099 5
1060 1061 2
1060 1100 5
1061 1062 1
1061 1101 1
1062 1063 2
1062 1102 1
1063 1064 4
1063 1103 3
1064 1065 1
1064 1104 1
1065 1066 1
1065 1105 2
1066 1067 1
1066 1106 2
1067 1068 5
1067 1107 4
1068 1069 5
1068 1108 5
1069 1070 5
1069 1109 1
1070 1071 5
1070 1110 5
1071 1072 5
1071 1111 3
1072 1073 3
1072 1112 1
1073 1074 2
1073 1113 4
1074 1075 1
1074 1114 5
1075 1076 4
1075 1115 3
1076 1077 5
1076 1116 1
1077 1078 4
1077 1117 3
1078 1079 3
1078 1118 4
1079 1080 2
1079 1119 2
1080 1120 3
1081 1082 3
1081 1121 1
1082 1083 5
1082 1122 4
1083 1084 3
1083 1123 5
1084 1085 2
1084 1124 1
1085 1086 4
1085 1125 2
1086 1087 5
1086 1126 2
1087 1088 2
1087 1127 3
1088 1089 4
1088 1128 2
1089 1090 4
1089 1129 4
1090 1091 5
1090 1130 2
1091 1092 2
1091 1131 2
1092 1093 1
1092 1132 5
1093 1094 4
1093 1133 1
1094 1095 5
1094 1134 1
1095 1096 1
1095 1135 3
1096 1097 4
1096 1136 2
1097 1098 3
1097 1137 4
1098 1099 3
1098 1138 4
1099 1100 5
1099 1139 3
1100 1101 2
1100 1140 1
1101 1102 2
1101 1141 4
1102 1103 5
1102 1142 2
1103 1104 5
1103 1143 2
1104 1105 1
1104 1144 3
1105 1106 1
1105 1145 4
1106 1107 3
1106 1146 4
1107 1108 3
1107 1147 3
1108 1109 4
1108 1148 1
1109 1110 1
1109 1149 1
1110 1111 4
1110 1150 5
1111 1112 5
1111 1151 1
1112 1113 3
1112 1152 3
1113 1114 5
1113 1153 4
1114 1115 2
1114 1154 3
1115 1116 4
1115 1155 2
1116 1117 1
1116 1156 1
1117 1118 3
1117 1157 4
1118 1119 1
1118 1158 5
1119 1120 5
1119 1159 5
1120 1160 5
1121 1122 2
1121 1161 3
1122 1123 4
1122 1162 1
1123 1124 2
1123 1163 2
1124 1125 2
1124 1164 5
1125 1126 4
1125 1165 3
1126 1127 3
1126 1166 1
1127 1128 5
1127 1167 1
1128 1129 4
1128 1168 3
1129 1130 5
1129 1169 5
1130 1131 3
1130 1170 4
1131 1132 5
1131 1171 4
1132 1133 4
1132 1172 3
1133 1134 3
1133 1173 2
1134 1135 3
1134 1174 3
1135 1136 2
1135 1175 1
1136 1137 4
1136 1176 1
1137 1138 5
1137 1177 4
1138 1139 5
1138 1178 4
1139 1140 2
1139 1179 2
1140 1141 4
1140 1180 2
1141 1142 4
1141 1181 2
1142 1143 4
1142 1182 4
1143 1144 3
1143 1183 2
1144 1145 4
1144 1184 2
1145 1146 3
1145 1185 1
1146 1147 5
1146 1186 5
1147 1148 4
1147 1187 1
1148 1149 1
1148 1188 4
1149 1150 4
1149 1189 3
1150 1151 2
1150 1190 1
1151 1152 2
1151 1191 3
1152 1153 3
1152 1192 5
1153 1154 2
1153 1193 4
1154 1155 1
1154 1194 5
1155 1156 3
1155 1195 3
1156 1157 3
1156 1196 3
1157 1158 4
1157 1197 3
1158 1159 3
1158 1198 1
1159 1160 4
1159 1199 4
1160 1200 3
1161 1162 2
1161 1201 4
1162 1163 2
1162 1202 5
1163 1164 1
1163 1203 4
1164 1165 3
1164 1204 1
1165 1166 3
1165 1205 5
1166 1167 1
1166 1206 5
1167 1168 3
1167 1207 2
1168 1169 1
1168 1208 2
1169 1170 5
1169 1209 4
1170 1171 2
1170 1210 5
1171 1172 1
1171 1211 5
1172 1173 4
1172 1212 4
1173 1174 4
1173 1213 2
1174 1175 3
1174 1214 2
1175 1176 1
1175 1215 4
1176 1177 4
1176 1216 3
1177 1178 3
1177 1217 4
1178 1179 4
1178 1218 2
1179 1180 5
1179 1219 4
1180 1181 5
1180 1220 1
1181 1182 2
1181 1221 1
1182 1183 3
1182 1222 3
1183 1184 4
1183 1223 4
1184 1185 2
1184 1224 4
1185 1186 5
1185 1225 2
1186 1187 2
1186 1226 2
1187 1188 2
1187 1227 1
1188 1189 1
1188 1228 1
1189 1190 2
1189 1229 5
1190 1191 2
1190 1230 2
1191 1192 1
1191 1231 3
1192 1193 4
1192 1232 3
1193 1194 3
1193 1233 4
1194 1195 3
1194 1234 2
1195 1196 2
1195 1235 5
1196 1197 3
1196 1236 3
1197 1198 1
1197 1237 4
1198 1199 5
1198 1238 2
1199 1200 3
1199 1239 3
1200 1240 1
1201 1202 4
1201 1241 1
1202 1203 1
1202 1242 4
1203 1204 1
1203 1243 5
1204 1205 4
1204 1244 2
1205 1206 4
1205 1245 1
1206 1207 3
1206 1246 5
1207 1208 5
1207 1247 5
1208 1209 1
1208 1248 5
1209 1210 4
1209 1249 2
1210 1211 1
1210 1250 3
1211 1212 2
1211 1251 4
1212 1213 3
1212 1252 5
1213 1214 3
1213 1253 3
1214 1215 3
1214 1254 2
1215 1216 4
1215 1255 2
1216 1217 3
1216 1256 1
1217 1218 4
1217 1257 5
1218 1219 4
1218 1258 3
1219 1220 2
1219 1259 4
1220 1221 1
1220 1260 3
1221 1222 3
1221 1261 3
1222 1223 1
1222 1262 1
1223 1224 5
1223 1263 4
1224 1225 4
1224 1264 3
1225 1226 2
1225 1265 4
1226 1227 2
1226 1266 5
1227 1228 2
1227 1267 2
1228 1229 1
1228 1268 2
1229 1230 5
1229 1269 3
1230 1231 5
1230 1270 4
1231 1232 4
1231 1271 5
1232 1233 4
1232 1272 3
1233 1234 3
1233 1273 1
1234 1235 5
1234 1274 1
1235 1236 2
1235 1275 1
1236 1237 5
1236 1276 1
1237 1238 1
1237 1277 5
1238 1239 4
1238 1278 1
1239 1240 4
1239 1279 4
1240 1280 2
1241 1242 1
1241 1281 1
1242 1243 3
1242 1282 1
1243 1244 2
1243 1283 1
1244 1245 1
1244 1284 5
1245 1246 1
1245 1285 4
1246 1247 3
1246 1286 3
1247 1248 2
1247 1287 4
1248 1249 4
1248 1288 5
1249 1250 3
1249 1289 3
1250 1251 1
1250 1290 5
1251 1252 4
1251 1291 5
1252 1253 3
1252 1292 3
1253 1254 5
1253 1293 5
1254 1255 2
1254 1294 5
1255 1256 2
1255 1295 2
1256 1257 3
1256 1296 3
1257 1258 5
1257 1297 3
1258 1259 4
1258 1298 5
1259 1260 2
1259 1299 5
1260 1261 4
1260 1300 3
1261 1262 5
1261 1301 2
1262 1263 4
1262 1302 3
1263 1264 4
1263 1303 5
1264 1265 2
1264 1304 3
1265 1266 4
1265 1305 2
1266 1267 1
1266 1306 4
1267 1268 3
1267 1307 1
1268 1269 5
1268 1308 1
1269 1270 4
1269 1309 5
1270 1271 1
1270 1310 1
1271 1272 2
1271 1311 4
1272 1273 5
1272 1312 5
1273 1274 2
1273 1313 2
1274 1275 1
1274 1314 3
1275 1276 2
1275 1315 3
1276 1277 5
1276 1316 4
1277 1278 4
1277 1317 4
1278 1279 5
1278 1318 5
1279 1280 3
1279 1319 3
1280 1320 4
1281 1282 2
1281 1321 1
1282 1283 5
1282 1322 4
1283 1284 3
1283 1323 2
1284 1285 5
1284 1324 4
1285 1286 2
1285 1325 4
1286 1287 3
1286 1326 5
1287 1288 3
1287 1327 2
1288 1289 2
1288 1328 1
1289 1290 4
1289 1329 1
1290 1291 2
1290 1330 5
1291 1292 1
1291 1331 4
1292 1293 3
1292 1332 1
1293 1294 3
1293 1333 2
1294 1295 2
1294 1334 2
1295 1296 4
1295 1335 1
1296 1297 3
1296 1336 4
1297 1298 3
1297 1337 4
1298 1299 5
1298 1338 2
1299 1300 4
1299 1339 1
1300 1301 2
1300 1340 4
1301 1302 1
1301 1341 2
1302 1303 2
1302 1342 1
1303 1304 2
1303 1343 4
1304 1305 2
1304 1344 1
1305 1306 2
1305 1345 3
1306 1307 4
1306 1346 1
1307 1308 5
1307 1347 1
1308 1309 5
1308 1348 3
1309 1310 5
1309 1349 1
1310 1311 3
1310 1350 4
1311 1312 5
1311 1351 2
1312 1313 4
1312 1352 2
1313 1314 2
1313 1353 4
1314 1315 4
1314 1354 4
1315 1316 4
1315 1355 5
1316 1317 5
1316 1356 2
1317 1318 1
1317 1357 4
1318 1319 2
1318 1358 5
1319 1320 4
1319 1359 5
1320 1360 3
1321 1322 2
1321 1361 3
1322 1323 3
1322 1362 3
1323 1324 4
1323 1363 3
1324 1325 1
1324 1364 4
1325 1326 2
1325 1365 2
1326 1327 4
1326 1366 1
1327 1328 2
1327 1367 2
1328 1329 1
1328 1368 5
1329 1330 5
1329 1369 2
1330 1331 5
1330 1370 4
1331 1332 1
1331 1371 1
1332 1333 3
1332 1372 1
1333 1334 3
1333 1373 5
1334 1335 4
1334 1374 4
1335 1336 4
1335 1375 3
1336 1337 1
1336 1376 1
1337 1338 4
1337 1377 1
1338 1339 2
1338 1378 4
1339 1340 5
1339 1379 5
1340 1341 2
1340 1380 5
1341 1342 3
1341 1381 2
1342 1343 5
1342 1382 3
1343 1344 2
1343 1383 1
1344 1345 3
1344 1384 3
1345 1346 4
1345 1385 2
1346 1347 4
1346 1386 2
1347 1348 1
1347 1387 3
1348 1349 3
1348 1388 3
1349 1350 5
1349 1389 4
1350 1351 1
1350 1390 1
1351 1352 2
1351 1391 4
1352 1353 4
1352 1392 1
1353 1354 5
1353 1393 4
1354 1355 1
1354 1394 1
1355 1356 4
1355 1395 2
1356 1357 1
1356 1396 1
1357 1358 2
1357 1397 2
1358 1359 4
1358 1398 2
1359 1360 1
1359 1399 1
1360 1400 2
1361 1362 1
1361 1401 2
1362 1363 1
1362 1402 1
1363 1364 1
1363 1403 5
1364 1365 2
1364 1404 4
1365 1366 1
1365 1405 5
1366 1367 3
1366 1406 1
1367 1368 4
1367 1407 1
1368 1369 1
1368 1408 4
1369 1370 4
1369 1409 1
1370 1371 3
1370 1410 5
1371 1372 2
1371 1411 3
1372 1373 1
1372 1412 2
1373 1374 5
1373 1413 1
1374 1375 3
1374 1414 5
1375 1376 1
1375 1415 5
1376 1377 4
1376 1416 5
1377 1378 3
1377 1417 3
1378 1379 1
1378 1418 1
1379 1380 3
1379 1419 2
1380 1381 4
1380 1420 3
1381 1382 2
1381 1421 5
1382 1383 2
1382 1422 5
1383 1384 1
1383 1423 5
1384 1385 5
1384 1424 5
1385 1386 4
1385 1425 2
1386 1387 1
1386 1426 5
1387 1388 4
1387 1427 4
1388 1389 3
1388 1428 1
1389 1390 4
1389 1429 5
1390 1391 3
1390 1430 3
1391 1392 4
1391 1431 1
1392 1393 3
1392 1432 5
1393 1394 3
1393 1433 4
1394 1395 2
1394 1434 4
1395 1396 4
1395 1435 1
1396 1397 1
1396 1436 5
1397 1398 5
1397 1437 3
1398 1399 4
1398 1438 4
1399 1400 2
1399 1439 2
1400 1440 2
1401 1402 5
1401 1441 2
1402 1403 2
1402 1442 2
1403 1404 3
1403 1443 5
1404 1405 4
1404 1444 2
1405 1406 1
1405 1445 1
1406 1407 5
1406 1446 3
1407 1408 5
1407 1447 2
1408 1409 5
1408 1448 4
1409 1410 1
1409 1449 3
1410 1411 5
1410 1450 3
1411 1412 3
1411 1451 1
1412 1413 1
1412 1452 2
1413 1414 3
1413 1453 5
1414 1415 1
1414 1454 3
1415 1416 5
1415 1455 4
1416 1417 4
1416 1456 3
1417 1418 5
1417 1457 2
1418 1419 5
1418 1458 2
1419 1420 3
1419 1459 3
1420 1421 5
1420 1460 2
1421 1422 4
1421 1461 3
1422 1423 3
1422 1462 4
1423 1424 5
1423 1463 2
1424 1425 2
1424 1464 1
1425 1426 3
1425 1465 3
1426 1427 5
1426 1466 3
1427 1428 4
1427 1467 1
1428 1429 1
1428 1468 5
1429 1430 1
1429 1469 5
1430 1431 2
1430 1470 5
1431 1432 2
1431 1471 5
1432 1433 1
1432 1472 5
1433 1434 1
1433 1473 1
1434 1435 4
1434 1474 5
1435 1436 2
1435 1475 1
1436 1437 3
1436 1476 4
1437 1438 3
1437 1477 4
1438 1439 3
1438 1478 1
1439 1440 2
1439 1479 3
1440 1480 1
1441 1442 2
1441 1481 1
1442 1443 5
1442 1482 2
1443 1444 5
1443 1483 3
1444 1445 4
1444 1484 3
1445 1446 2
1445 1485 3
1446 1447 2
1446 1486 5
1447 1448 3
1447 1487 5
1448 1449 2
1448 1488 3
1449 1450 5
1449 1489 5
1450 1451 5
1450 1490 2
1451 1452 1
1451 1491 4
1452 1453 5
1452 1492 4
1453 1454 5
1453 1493 3
1454 1455 4
1454 1494 4
1455 1456 3
1455 1495 2
1456 1457 3
1456 1496 4
1457 1458 4
1457 1497 4
1458 1459 1
1458 1498 4
1459 1460 5
1459 1499 4
1460 1461 5
1460 1500 2
1461 1462 5
1461 1501 4
1462 1463 4
1462 1502 5
1463 1464 5
1463 1503 5
1464 1465 3
1464 1504 4
1465 1466 3
1465 1505 4
1466 1467 4
1466 1506 5
1467 1468 1
1467 1507 3
1468 1469 2
1468 1508 1
1469 1470 3
1469 1509 4
1470 1471 1
1470 1510 1
1471 1472 1
1471 1511 1
1472 1473 5
1472 1512 2
1473 1474 1
1473 1513 1
1474 1475 2
1474 1514 5
1475 1476 1
1475 1515 5
1476 1477 1
1476 1516 3
1477 1478 3
1477 1517 1
1478 1479 1
1478 1518 3
1479 1480 1
1479 1519 5
1480 1520 2
1481 1482 5
1481 1521 4
1482 1483 3
1482 1522 1
1483 1484 1
1483 1523 5
1484 1485 4
1484 1524 4
1485 1486 2
1485 1525 4
1486 1487 1
1486 1526 2
1487 1488 5
1487 1527 4
1488 1489 5
1488 1528 3
1489 1490 3
1489 1529 1
1490 1491 5
1490 1530 2
1491 1492 4
1491 1531 2
1492 1493 5
1492 1532 3
1493 1494 3
1493 1533 3
1494 1495 2
1494 1534 2
1495 1496 4
1495 1535 5
1496 1497 5
1496 1536 3
1497 1498 3
1497 1537 5
1498 1499 1
1498 1538 4
1499 1500 2
1499 1539 5
1500 1501 1
1500 1540 5
1501 1502 2
1501 1541 2
1502 1503 4
1502 1542 4
1503 1504 3
1503 1543 1
1504 1505 1
1504 1544 1
1505 1506 4
1505 1545 3
1506 1507 2
1506 1546 1
1507 1508 4
1507 1547 3
1508 1509 2
1508 1548 1
1509 1510 1
1509 1549 5
1510 1511 4
1510 1550 3
1511 1512 3
1511 1551 1
1512 1513 3
1512 1552 3
1513 1514 5
1513 1553 3
1514 1515 1
1514 1554 5
1515 1516 4
1515 1555 2
1516 1517 3
1516 1556 3
1517 1518 3
1517 1557 5
1518 1519 4
1518 1558 1
1519 1520 5
1519 1559 4
1520 1560 1
1521 1522 5
1521 1561 2
1522 1523 1
1522 1562 5
1523 1524 3
1523 1563 2
1524 1525 5
1524 1564 5
1525 1526 2
1525 1565 5
1526 1527 5
1526 1566 1
1527 1528 4
1527 1567 3
1528 1529 3
1528 1568 5
1529 1530 2
1529 1569 3
1530 1531 1
1530 1570 1
1531 1532 5
1531 1571 3
1532 1533 1
1532 1572 3
1533 1534 2
1533 1573 5
1534 1535 2
1534 1574 5
1535 1536 1
1535 1575 3
1536 1537 1
1536 1576 2
1537 1538 1
1537 1577 5
1538 1539 3
1538 1578 4
1539 1540 3
1539 1579 4
1540 1541 3
1540 1580 5
1541 1542 2
1541 1581 2
1542 1543 5
1542 1582 5
1543 1544 1
1543 1583 2
1544 1545 3
1544 1584 3
1545 1546 4
1545 1585 4
1546 1547 5
1546 1586 1
1547 1548 4
1547 1587 4
1548 1549 4
1548 1588 4
1549 1550 2
1549 1589 2
1550 1551 4
1550 1590 1
1551 1552 2
1551 1591 3
1552 1553 4
1552 1592 1
1553 1554 3
1553 1593 2
1554 1555 2
1554 1594 4
1555 1556 4
1555 1595 3
1556 1557 2
1556 1596 2
1557 1558 4
1557 1597 2
1558 1559 4
1558 1598 3
1559 1560 3
1559 1599 4
1560 1600 2
1561 1562 1
1562 1563 5
1563 1564 4
1564 1565 4
1565 1566 3
1566 1567 5
1567 1568 5
1568 1569 5
1569 1570 4
1570 1571 4
1571 1572 5
1572 1573 2
1573 1574 1
1574 1575 3
1575 1576 5
1576 1577 4
1577 1578 1
1578 1579 1
1579 1580 4
1580 1581 5
1581 1582 2
1582 1583 5
1583 1584 4
1584 1585 4
1585 1586 3
1586 1587 1
1587 1588 2
1588 1589 1
1589 1590 3
1590 1591 3
1591 1592 2
1592 1593 4
1593 1594 1
1594 1595 5
1595 1596 3
1596 1597 5
1597 1598 4
1598 1599 5
1599 1600 1
1 1561 3
2 1562 5
3 1563 4
4 1564 4
5 1565 3
6 1566 2
7 1567 1
8 1568 3
9 1569 1
10 1570 5
11 1571 3
12 1572 1
13 1573 1
14 1574 3
15 1575 1
16 1576 2
17 1577 5
18 1578 1
19 1579 3
20 1580 1
21 1581 5
22 1582 5
23 1583 5
24 1584 5
25 1585 1
26 1586 3
27 1587 5
28 1588 4
29 1589 4
30 1590 1
31 1591 3
32 1592 3
33 1593 2
34 1594 5
35 1595 5
36 1596 4
37 1597 3
38 1598 3
39 1599 1
40 1600 1
1 40 2
41 80 2
81 120 1
121 160 1
161 200 5
201 240 4
241 280 2
281 320 1
321 360 2
361 400 3
401 440 1
441 480 2
481 520 3
521 560 5
561 600 5
601 640 2
641 680 4
681 720 5
721 760 2
761 800 4
801 840 2
841 880 3
881 920 2
921 960 5
961 1000 2
1001 1040 4
1041 1080 3
1081 1120 1
1121 1160 5
1161 1200 1
1201 1240 1
1241 1280 4
1281 1320 4
1321 1360 2
1361 1400 5
1401 1440 3
1441 1480 5
1481 1520 5
1521 1560 4
1561 1600 1
